TITL anilin in P2(1)/c
CELL 0.71073  21.645   5.833   8.319  90.00 101.12  90.00
ZERR    8.00   0.018   0.007   0.006   0.00   0.03   0.00
LATT  1
SYMM -X, 0.5+Y, 0.5-Z
SFAC C H N
UNIT 48 56 8
L.S. 4
BOND
FMAP 2
PLAN 20
temp -120
size 0.8 0.6 0.4
rem twin 1 0 1 0 -1 0 0 0 -1
REM  anilin in P2(1)/c
REM R1 =  0.0890 for   1505 Fo > 4sig(Fo)  and  0.1004 for all   1790 data
REM    127 parameters refined using      0 restraints
sadi n21 h21a n21 h21b n11 h11a n11 h11b
sadi h11a h11b h21a h21b
htab
rem BASF   0.07343
rem WGHT    0.035300    1.150100
WGHT    0.035000    1.152300
EXTI    0.024722
FVAR       0.24758
N21   3    0.192285    0.712964    0.182939    11.00000    0.02856    0.03975 =
         0.03526   -0.00714    0.00676   -0.00495
H21A  2    0.174983    0.593782    0.119025    11.00000    0.04022
H21B  2    0.220552    0.771625    0.127061    11.00000    0.03909
C21   1    0.155564    0.869403    0.248964    11.00000    0.02605    0.03165 =
         0.02461    0.00272   -0.00023    0.00152
C26   1    0.178966    1.083176    0.306617    11.00000    0.02698    0.03563 =
         0.02945    0.00398    0.00216   -0.00658
AFIX  43
H26   2    0.219913    1.127906    0.293564    11.00000   -1.20000
AFIX   0
C23   1    0.060014    0.958719    0.345729    11.00000    0.02256    0.04437 =
         0.04398    0.00604    0.00483    0.00184
AFIX  43
H23   2    0.018914    0.915359    0.358360    11.00000   -1.20000
AFIX   0
C25   1    0.143722    1.230719    0.382218    11.00000    0.03397    0.03078 =
         0.03360    0.00032    0.00077   -0.00152
AFIX  43
H25   2    0.160508    1.376072    0.419229    11.00000   -1.20000
AFIX   0
C24   1    0.083911    1.169242    0.404909    11.00000    0.03325    0.03876 =
         0.03669    0.00138    0.00435    0.00784
AFIX  43
H24   2    0.060062    1.269016    0.459568    11.00000   -1.20000
AFIX   0
C22   1    0.094497    0.811748    0.269312    11.00000    0.02444    0.03563 =
         0.03658    0.00172   -0.00208   -0.00475
AFIX  43
H22   2    0.076848    0.668753    0.229506    11.00000   -1.20000
AFIX   0
N11   3    0.309740    0.746650    0.977981    11.00000    0.03017    0.04406 =
         0.03952   -0.00486   -0.00098   -0.00509
H11A  2    0.327697    0.633265    0.929513    11.00000    0.09487
H11B  2    0.279401    0.806127    0.899543    11.00000    0.05049
C11   1    0.346684    0.897351    1.084604    11.00000    0.02047    0.03742 =
         0.02995    0.00009    0.00651   -0.00404
C12   1    0.323365    1.110661    1.117612    11.00000    0.02223    0.04106 =
         0.03118    0.00540    0.00530    0.00228
AFIX  43
H12   2    0.283221    1.158303    1.059768    11.00000   -1.20000
AFIX   0
C15   1    0.440331    0.976520    1.284527    11.00000    0.02291    0.04792 =
         0.03741    0.00079    0.00037   -0.00463
AFIX  43
H15   2    0.480827    0.930321    1.340941    11.00000   -1.20000
AFIX   0
C16   1    0.406318    0.832420    1.169006    11.00000    0.02476    0.03233 =
         0.03750    0.00026    0.00551    0.00171
AFIX  43
H16   2    0.423453    0.688583    1.146690    11.00000   -1.20000
AFIX   0
C13   1    0.357942    1.254988    1.233950    11.00000    0.04028    0.03129 =
         0.03692   -0.00030    0.01567    0.00234
AFIX  43
H13   2    0.341541    1.400600    1.255104    11.00000   -1.20000
AFIX   0
C14   1    0.416898    1.185741    1.319867    11.00000    0.03431    0.04062 =
         0.03629   -0.00467    0.00386   -0.01140
AFIX  43
H14   2    0.440473    1.281820    1.401555    11.00000   -1.20000
 
HKLF 4
 
REM  anilin in P2(1)/c
REM R1 =  0.0705 for   1505 Fo > 4sig(Fo)  and  0.0815 for all   1790 data
REM    144 parameters refined using      7 restraints
 
END  
     
WGHT      0.0353      1.1500 
REM Highest difference peak  0.256,  deepest hole -0.234,  1-sigma level  0.064
Q1    1   0.1756  1.3642  0.2492  11.00000  0.05    0.26
Q2    1   0.0806  1.1479  0.5232  11.00000  0.05    0.25
Q3    1   0.0836  0.8313  0.3529  11.00000  0.05    0.23
Q4    1   0.1527  0.5783  0.2504  11.00000  0.05    0.21
Q5    1   0.0924  0.6531  0.2650  11.00000  0.05    0.21
Q6    1   0.3365  0.8915  0.9434  11.00000  0.05    0.21
Q7    1   0.4541  1.1339  1.5417  11.00000  0.05    0.20
Q8    1   0.4133  1.0339  1.3611  11.00000  0.05    0.20
Q9    1   0.1320  0.8123  0.3249  11.00000  0.05    0.20
Q10   1   0.4832  0.9173  1.5023  11.00000  0.05    0.20
Q11   1   0.0091  0.8879  0.4733  11.00000  0.05    0.20
Q12   1   0.4470  1.1342  1.2239  11.00000  0.05    0.19
Q13   1   0.1573  0.8742  0.0098  11.00000  0.05    0.18
Q14   1  -0.0301  0.9154  0.4474  11.00000  0.05    0.18
Q15   1   0.3536  1.0570  1.0325  11.00000  0.05    0.18
Q16   1   0.4177  0.9578  1.4639  11.00000  0.05    0.17
Q17   1   0.0859  0.9987  0.4401  11.00000  0.05    0.17
Q18   1   0.3333  1.0682  1.2442  11.00000  0.05    0.17
Q19   1   0.1589  1.2160  0.3006  11.00000  0.05    0.16
Q20   1   0.3806  1.2076  1.3904  11.00000  0.05    0.16
